GLPSOL--GLPK LP/MIP Solver 5.0
Parameter(s) specified in the command line:
 --lp ../modeles/3_64.lp --log 3_64.log
Reading problem data from '../modeles/3_64.lp'...
205 rows, 390 columns, 1353 non-zeros
192 integer variables, all of which are binary
604 lines were read
GLPK Integer Optimizer 5.0
205 rows, 390 columns, 1353 non-zeros
192 integer variables, all of which are binary
Preprocessing...
186 constraint coefficient(s) were reduced
205 rows, 387 columns, 1350 non-zeros
192 integer variables, all of which are binary
Scaling...
 A: min|aij| =  3.906e-03  max|aij| =  4.000e+00  ratio =  1.024e+03
GM: min|aij| =  1.768e-01  max|aij| =  5.657e+00  ratio =  3.200e+01
EQ: min|aij| =  3.125e-02  max|aij| =  1.000e+00  ratio =  3.200e+01
2N: min|aij| =  3.125e-02  max|aij| =  1.638e+00  ratio =  5.243e+01
Constructing initial basis...
Size of triangular part is 205
Solving LP relaxation...
GLPK Simplex Optimizer 5.0
205 rows, 387 columns, 1350 non-zeros
      0: obj =   6.000000000e+00 inf =   1.450e+01 (7)
     32: obj =   2.280959373e-01 inf =   0.000e+00 (0)
*    90: obj =  -1.730263158e+00 inf =   4.660e-17 (0)
OPTIMAL LP SOLUTION FOUND
Integer optimization begins...
Long-step dual simplex will be used
+    90: mip =     not found yet >=              -inf        (1; 0)
+   159: >>>>>  -1.730263158e+00 >=  -1.730263158e+00   0.0% (69; 0)
+   159: mip =  -1.730263158e+00 >=     tree is empty   0.0% (0; 137)
INTEGER OPTIMAL SOLUTION FOUND
Time used:   0.0 secs
Memory used: 0.6 Mb (634891 bytes)
